
Gurobi 9.0.1 (linux64) logging started Thu Apr 30 05:57:40 2020

Gurobi Optimizer version 9.0.1 build v9.0.1rc0 (linux64)
Optimize a model with 896 rows, 990 columns and 6984 nonzeros
Model fingerprint: 0xf13fa16f
Variable types: 0 continuous, 990 integer (980 binary)
Coefficient statistics:
  Matrix range     [1e+00, 5e+00]
  Objective range  [1e+01, 9e+01]
  Bounds range     [1e+00, 1e+00]
  RHS range        [1e+00, 1e+00]

User MIP start produced solution with objective 501 (0.00s)
Loaded user MIP start with objective 501

Presolve removed 406 rows and 396 columns
Presolve time: 0.07s
Presolved: 490 rows, 594 columns, 4370 nonzeros
Variable types: 0 continuous, 594 integer (594 binary)

Root relaxation: objective 3.907632e+02, 252 iterations, 0.01 seconds

    Nodes    |    Current Node    |     Objective Bounds      |     Work
 Expl Unexpl |  Obj  Depth IntInf | Incumbent    BestBd   Gap | It/Node Time

     0     0  390.76316    0  135  501.00000  390.76316  22.0%     -    0s
     0     0  406.97949    0  127  501.00000  406.97949  18.8%     -    0s
     0     0  409.27136    0  136  501.00000  409.27136  18.3%     -    0s
     0     0  421.36575    0  143  501.00000  421.36575  15.9%     -    0s
     0     0  422.22270    0  136  501.00000  422.22270  15.7%     -    0s
     0     0  422.31024    0  135  501.00000  422.31024  15.7%     -    0s
     0     0  429.89946    0  147  501.00000  429.89946  14.2%     -    0s
     0     0  432.01720    0  150  501.00000  432.01720  13.8%     -    0s
     0     0  432.18676    0  158  501.00000  432.18676  13.7%     -    0s
     0     0  432.18719    0  159  501.00000  432.18719  13.7%     -    0s
     0     0  436.64342    0  158  501.00000  436.64342  12.8%     -    0s
     0     0  437.67625    0  146  501.00000  437.67625  12.6%     -    0s
     0     0  437.68359    0  145  501.00000  437.68359  12.6%     -    0s
     0     0  439.64713    0  155  501.00000  439.64713  12.2%     -    0s
     0     0  440.67033    0  157  501.00000  440.67033  12.0%     -    0s
     0     0  440.73006    0  164  501.00000  440.73006  12.0%     -    0s
     0     0  440.73120    0  171  501.00000  440.73120  12.0%     -    0s
     0     0  441.95313    0  157  501.00000  441.95313  11.8%     -    0s
     0     0  442.01583    0  154  501.00000  442.01583  11.8%     -    0s
     0     0  442.03192    0  161  501.00000  442.03192  11.8%     -    0s
     0     0  443.39700    0  160  501.00000  443.39700  11.5%     -    0s
     0     0  443.47727    0  167  501.00000  443.47727  11.5%     -    0s
     0     0  443.48064    0  167  501.00000  443.48064  11.5%     -    0s
     0     0  444.35375    0  167  501.00000  444.35375  11.3%     -    0s
H    0     0                     484.0000000  444.35375  8.19%     -    0s
     0     0  444.89011    0  169  484.00000  444.89011  8.08%     -    0s
     0     0  444.89145    0  169  484.00000  444.89145  8.08%     -    0s
     0     0  445.78215    0  138  484.00000  445.78215  7.90%     -    0s
     0     0  445.97235    0  170  484.00000  445.97235  7.86%     -    0s
     0     0  446.05505    0  174  484.00000  446.05505  7.84%     -    0s
     0     0  446.05579    0  177  484.00000  446.05579  7.84%     -    0s
     0     0  446.76239    0  181  484.00000  446.76239  7.69%     -    0s
     0     0  446.76239    0  181  484.00000  446.76239  7.69%     -    0s
     0     0  446.85330    0  184  484.00000  446.85330  7.67%     -    0s
     0     0  446.85330    0  175  484.00000  446.85330  7.67%     -    0s
     0     0  447.46136    0   98  484.00000  447.46136  7.55%     -    0s
     0     0  447.46136    0  133  484.00000  447.46136  7.55%     -    0s
     0     0  447.46136    0  148  484.00000  447.46136  7.55%     -    0s
     0     0  447.46136    0  152  484.00000  447.46136  7.55%     -    0s
     0     0  447.46136    0  164  484.00000  447.46136  7.55%     -    0s
     0     0  447.46136    0  172  484.00000  447.46136  7.55%     -    0s
     0     0  447.46136    0  176  484.00000  447.46136  7.55%     -    0s
     0     0  447.46136    0  176  484.00000  447.46136  7.55%     -    0s
     0     0  449.80981    0  161  484.00000  449.80981  7.06%     -    0s
     0     0  450.18530    0  162  484.00000  450.18530  6.99%     -    1s
     0     0  450.41465    0  170  484.00000  450.41465  6.94%     -    1s
     0     0  450.59360    0  170  484.00000  450.59360  6.90%     -    1s
     0     0  450.61693    0  169  484.00000  450.61693  6.90%     -    1s
     0     0  451.27255    0  114  484.00000  451.27255  6.76%     -    1s
     0     0  451.35330    0  125  484.00000  451.35330  6.75%     -    1s
     0     0  451.40270    0  128  484.00000  451.40270  6.73%     -    1s
     0     0  451.44124    0  131  484.00000  451.44124  6.73%     -    1s
     0     0  451.44124    0  131  484.00000  451.44124  6.73%     -    1s
     0     0  451.44124    0  102  484.00000  451.44124  6.73%     -    1s
H    0     0                     466.0000000  451.44124  3.12%     -    1s
     0     0  451.51501    0   46  466.00000  451.51501  3.11%     -    1s
     0     0     cutoff    0       466.00000  466.00000  0.00%     -    1s

Cutting planes:
  Gomory: 2
  Clique: 15
  MIR: 4
  Zero half: 23
  RLT: 3

Explored 1 nodes (2963 simplex iterations) in 1.25 seconds
Thread count was 1 (of 40 available processors)

Solution count 3: 466 484 501 

Optimal solution found (tolerance 1.00e-04)
Best objective 4.660000000000e+02, best bound 4.660000000000e+02, gap 0.0000%

User-callback calls 711, time in user-callback 0.00 sec
